objective value:                                  -81
t_x14                                               1 	(obj:-100)
t_y14_162                                           1 	(obj:1)
t_y14_286                                           1 	(obj:1)
t_y14_190                                           1 	(obj:1)
t_y14_235                                           1 	(obj:1)
t_y14_161                                           1 	(obj:1)
t_y14_371                                           1 	(obj:1)
t_y3_14                                             1 	(obj:1)
t_y14_369                                           1 	(obj:1)
t_y14_85                                            1 	(obj:1)
t_y14_49                                            1 	(obj:1)
t_y14_243                                           1 	(obj:1)
t_y14_408                                           1 	(obj:1)
t_y14_133                                           1 	(obj:1)
t_y14_32                                            1 	(obj:1)
t_y14_227                                           1 	(obj:1)
t_y14_230                                           1 	(obj:1)
t_y14_363                                           1 	(obj:1)
t_y14_186                                           1 	(obj:1)
t_y14_150                                           1 	(obj:1)
